xcoord1 = [1, 2, 3, 4, 5, 6, 7];
ycoord1 = [1, 2, 3, 4, 5, 6, 7];
hill1 = [4, 4, 1, 2, 7, 3, 4, 1, 6, 2];
hill2 = [5, 1, 3, 5, 2, 5, 6, 4, 4, 1];
number1 = [4, 1, 6, 2];
number2 = [6, 4, 4, 1];
number3 = [0, 2, 1, 2];
